Normalized Data/p10_18_normalized_splitx10_0.vrp
NAME:p10_18_NORMALIZED_splitx10_
BEST_KNOWN: 0
COMMENT: 0
DIMENSION: 846
CAPACITY: 1000
EDGE_WEIGHT_FORMAT: FUNCTION
EDGE_WEIGHT_TYPE: EXACT_2D
NODE_COORD_SECTION
1 0.00000 0.00000
2 0 44
3 0 44
4 0 44
5 0 44
6 0 44
7 -3 -48
8 -3 -48
9 -3 -48
10 23 -17
11 23 -17
12 23 -17
13 23 -17
14 23 -17
15 23 -17
16 -50 -22
17 -50 -22
18 -16 -10
19 -16 -10
20 -16 -10
21 -32 18
22 -32 18
23 4 -22
24 4 -22
25 4 -22
26 4 -22
27 4 -22
28 28 -20
29 28 -20
30 28 -20
31 28 -20
32 28 -20
33 28 -20
34 28 -20
35 34 4
36 34 4
37 34 4
38 34 4
39 43 -36
40 43 -36
41 4 -8
42 4 -8
43 4 -8
44 4 -8
45 4 -8
46 4 -8
47 22 3
48 22 3
49 -33 -6
50 -33 -6
51 -33 -6
52 24 -45
53 24 -45
54 24 -45
55 3 -41
56 3 -41
57 3 -41
58 13 27
59 13 27
60 13 27
61 13 27
62 13 27
63 -3 -36
64 -3 -36
65 -3 -36
66 -3 -36
67 -3 -36
68 -3 -36
69 -27 25
70 -27 25
71 -27 25
72 -27 25
73 -27 25
74 -27 25
75 -27 25
76 -20 -16
77 -20 -16
78 -20 -16
79 -20 -16
80 -20 -16
81 30 1
82 30 1
83 30 1
84 -22 3
85 -22 3
86 -22 3
87 -22 3
88 -22 3
89 -22 3
90 45 -35
91 45 -35
92 45 -35
93 15 11
94 15 11
95 15 11
96 14 1
97 14 1
98 14 1
99 14 1
100 14 1
101 14 1
102 -38 6
103 -38 6
104 -38 6
105 -38 6
106 -50 -31
107 -50 -31
108 -50 -31
109 -50 -31
110 -50 -31
111 -50 -31
112 -50 -31
113 -11 -11
114 -11 -11
115 -11 -11
116 -11 -11
117 -10 -26
118 -10 -26
119 -10 -26
120 -10 -26
121 -10 -26
122 -2 35
123 -2 35
124 -2 35
125 -2 35
126 -2 35
127 2 9
128 2 9
129 2 9
130 -26 -19
131 -26 -19
132 -26 -19
133 -26 -19
134 -20 3
135 -20 3
136 -20 3
137 -20 3
138 -20 3
139 37 -44
140 37 -44
141 37 -44
142 44 26
143 44 26
144 44 26
145 44 26
146 44 26
147 -49 -3
148 -49 -3
149 -49 -3
150 40 14
151 40 14
152 40 14
153 40 14
154 40 14
155 17 23
156 17 23
157 17 23
158 17 23
159 20 -18
160 20 -18
161 20 -18
162 20 -18
163 20 -18
164 20 -18
165 7 -40
166 7 -40
167 24 36
168 24 36
169 24 36
170 24 36
171 24 36
172 24 36
173 0 -46
174 0 -46
175 0 -46
176 0 -46
177 0 -46
178 0 -46
179 0 -46
180 -17 33
181 -17 33
182 -17 33
183 -17 33
184 -31 -20
185 -31 -20
186 -31 -20
187 2 16
188 2 16
189 2 16
190 2 16
191 2 16
192 2 11
193 2 11
194 -30 -16
195 -30 -16
196 -30 -16
197 -30 -16
198 -30 -16
199 -30 -16
200 31 34
201 31 34
202 31 34
203 31 34
204 -36 -15
205 -36 -15
206 -36 -15
207 -41 0
208 -41 0
209 -41 0
210 -41 0
211 -41 0
212 -41 0
213 -41 0
214 -22 -21
215 -22 -21
216 -22 -21
217 20 48
218 20 48
219 20 48
220 34 -1
221 34 -1
222 34 -1
223 34 -1
224 34 -1
225 34 -1
226 -35 -46
227 -35 -46
228 -29 -30
229 -29 -30
230 -29 -30
231 -36 41
232 -36 41
233 -36 41
234 -36 41
235 -36 41
236 -36 41
237 -36 41
238 37 11
239 37 11
240 -31 -27
241 -31 -27
242 -44 35
243 -44 35
244 -44 35
245 -44 35
246 -25 -5
247 -25 -5
248 -25 -5
249 -25 -5
250 -45 -44
251 -45 -44
252 -45 -44
253 -45 -44
254 48 -45
255 48 -45
256 48 -45
257 48 -45
258 48 -45
259 -35 36
260 -35 36
261 -35 36
262 -47 25
263 -47 25
264 -47 25
265 -47 25
266 -47 25
267 -47 25
268 -47 25
269 17 -15
270 17 -15
271 17 -15
272 23 -2
273 23 -2
274 23 -2
275 23 -2
276 -19 -49
277 -19 -49
278 -19 -49
279 29 29
280 29 29
281 29 29
282 29 29
283 44 27
284 44 27
285 44 27
286 44 27
287 44 27
288 44 27
289 44 27
290 21 0
291 21 0
292 21 0
293 -35 5
294 -35 5
295 -35 5
296 -35 5
297 -35 5
298 -35 5
299 -15 49
300 -15 49
301 -15 49
302 -15 49
303 -15 49
304 -15 49
305 12 16
306 12 16
307 12 16
308 12 16
309 12 16
310 12 16
311 12 16
312 -12 49
313 -12 49
314 -12 49
315 -12 49
316 -12 49
317 -12 49
318 -18 27
319 -18 27
320 -18 27
321 -18 27
322 -41 -16
323 -41 -16
324 -26 47
325 -26 47
326 -26 47
327 -26 47
328 -2 31
329 -2 31
330 -2 31
331 7 -41
332 7 -41
333 -35 24
334 -35 24
335 -35 24
336 -35 24
337 44 13
338 44 13
339 -39 -47
340 -39 -47
341 -39 -47
342 -39 -47
343 -39 -47
344 42 -6
345 42 -6
346 42 -6
347 -19 -18
348 -19 -18
349 -19 -18
350 -19 -18
351 -43 44
352 -43 44
353 3 -21
354 3 -21
355 -26 12
356 -26 12
357 -26 12
358 -26 12
359 -26 12
360 -15 -29
361 -15 -29
362 -15 -29
363 -15 -29
364 -15 -29
365 -15 -29
366 -39 -48
367 -39 -48
368 -39 -48
369 -39 -48
370 -39 -48
371 -26 -28
372 -26 -28
373 21 -14
374 21 -14
375 14 -30
376 14 -30
377 14 -30
378 14 -30
379 27 -49
380 27 -49
381 27 -49
382 27 -49
383 -44 -38
384 -44 -38
385 -44 -38
386 -44 -38
387 -44 -38
388 -44 -38
389 -44 -38
390 -46 -44
391 -46 -44
392 -46 -44
393 -46 -44
394 -46 -44
395 -46 -44
396 -46 -44
397 2 17
398 2 17
399 2 17
400 2 17
401 2 17
402 2 17
403 14 1
404 14 1
405 14 1
406 14 1
407 14 1
408 14 1
409 -46 33
410 9 -36
411 9 -36
412 9 -36
413 9 -36
414 9 -36
415 9 -37
416 9 -37
417 9 -37
418 9 -37
419 9 -37
420 -23 -13
421 -23 -13
422 -23 -13
423 -23 -13
424 -23 -13
425 -23 -13
426 -47 -48
427 -47 -48
428 -47 -48
429 -47 -48
430 -47 -48
431 -41 39
432 -41 39
433 -41 39
434 -41 39
435 -41 39
436 -31 4
437 -31 4
438 -31 4
439 -31 4
440 -31 4
441 -31 4
442 -43 3
443 -43 3
444 -43 3
445 -43 3
446 -43 3
447 23 -32
448 23 -32
449 23 -32
450 23 -32
451 23 -32
452 -47 2
453 -47 2
454 -47 2
455 -47 2
456 -47 2
457 -47 2
458 -16 -44
459 -16 -44
460 -16 -44
461 22 -41
462 22 -41
463 22 -41
464 22 -41
465 22 -41
466 22 -41
467 8 4
468 39 -22
469 39 -22
470 29 47
471 29 47
472 29 47
473 29 47
474 29 47
475 -39 28
476 -39 28
477 -39 28
478 -39 28
479 -39 28
480 25 38
481 25 38
482 25 38
483 25 38
484 -7 47
485 -7 47
486 -7 47
487 -7 47
488 -13 -20
489 -13 -20
490 -13 -20
491 -13 -20
492 -26 -18
493 -26 -18
494 -26 -18
495 25 42
496 25 42
497 25 42
498 25 42
499 25 42
500 15 -12
501 15 -12
502 15 -12
503 15 -12
504 15 -12
505 -6 40
506 -6 40
507 -6 40
508 -43 -25
509 -43 -25
510 -43 -25
511 -43 -25
512 -43 -25
513 -13 7
514 -13 7
515 -13 7
516 -13 7
517 -37 -31
518 -37 -31
519 -37 -31
520 -43 -4
521 -1 36
522 -1 36
523 -1 36
524 -33 -39
525 -33 -39
526 -33 -39
527 -49 28
528 -49 28
529 -49 28
530 -49 28
531 -10 6
532 -10 6
533 -10 6
534 -10 6
535 -10 6
536 -23 -48
537 -23 -48
538 -42 0
539 -42 0
540 -42 0
541 -42 0
542 -42 0
543 -42 0
544 43 -35
545 43 -35
546 43 -35
547 43 -35
548 43 -35
549 40 -22
550 40 -22
551 40 -22
552 -3 34
553 -3 34
554 -3 34
555 -3 34
556 -3 34
557 -3 34
558 -5 -48
559 -5 -48
560 -5 -48
561 21 -34
562 21 -34
563 21 -34
564 36 23
565 36 23
566 36 23
567 36 23
568 36 23
569 36 23
570 50 -45
571 50 -45
572 -39 -12
573 -39 -12
574 -32 31
575 -32 31
576 -32 31
577 -37 42
578 -37 42
579 -37 42
580 15 32
581 15 32
582 15 32
583 24 9
584 24 9
585 24 9
586 24 9
587 42 21
588 42 21
589 42 21
590 42 21
591 42 21
592 49 46
593 49 46
594 49 46
595 49 46
596 49 46
597 17 -26
598 17 -26
599 17 -26
600 17 -26
601 17 -26
602 17 -26
603 17 -26
604 23 -38
605 23 -38
606 23 -38
607 23 -38
608 23 -38
609 23 -38
610 22 42
611 22 42
612 22 42
613 22 42
614 22 42
615 22 42
616 22 42
617 28 47
618 28 47
619 28 47
620 28 47
621 41 43
622 41 43
623 30 -10
624 30 -10
625 30 -10
626 30 -10
627 30 -10
628 30 -10
629 22 14
630 22 14
631 22 14
632 22 14
633 22 14
634 -33 44
635 -33 44
636 -33 44
637 -33 44
638 -33 44
639 -33 44
640 -45 -38
641 -45 -38
642 -45 -38
643 -45 -38
644 -45 -38
645 -45 -38
646 38 16
647 38 16
648 38 16
649 38 16
650 6 -46
651 6 -46
652 6 -46
653 6 -46
654 41 -38
655 41 -38
656 41 -38
657 41 -38
658 41 -38
659 41 -38
660 49 5
661 49 5
662 49 5
663 49 5
664 2 -1
665 2 -1
666 2 -1
667 2 -1
668 2 -1
669 2 -1
670 -35 -44
671 -35 -44
672 -35 -44
673 -35 -44
674 -35 -44
675 -35 -44
676 20 0
677 20 0
678 20 0
679 20 0
680 20 0
681 7 -2
682 7 -2
683 7 -2
684 7 -2
685 -23 3
686 -23 3
687 -23 3
688 -23 3
689 -23 3
690 -23 3
691 2 -49
692 2 -49
693 2 -49
694 23 46
695 23 46
696 23 46
697 28 9
698 28 9
699 28 9
700 28 9
701 28 9
702 28 9
703 34 18
704 34 18
705 34 18
706 34 18
707 -22 49
708 -22 49
709 -22 49
710 -22 49
711 25 -30
712 25 -30
713 25 -30
714 48 -18
715 21 -33
716 21 -33
717 45 31
718 45 31
719 16 -42
720 16 -42
721 16 -42
722 16 -42
723 16 -42
724 -10 -45
725 -10 -45
726 -10 -45
727 -10 -45
728 45 37
729 45 37
730 45 37
731 45 37
732 -31 -48
733 -31 -48
734 -31 -48
735 -31 -48
736 -31 -48
737 20 -28
738 20 -28
739 20 -28
740 20 -28
741 -27 -45
742 -27 -45
743 -27 -45
744 11 -22
745 11 -22
746 11 -22
747 11 -22
748 11 -22
749 -42 4
750 -42 4
751 -42 4
752 -42 4
753 -42 4
754 -42 40
755 -42 40
756 -42 40
757 2 -14
758 2 -14
759 2 -14
760 2 -14
761 2 -14
762 2 -14
763 2 -14
764 50 -45
765 50 -45
766 50 -45
767 50 -45
768 50 -45
769 50 -45
770 -17 13
771 -17 13
772 -17 13
773 -17 13
774 -17 13
775 -3 -16
776 -3 -16
777 -3 -16
778 -3 -16
779 -3 -16
780 21 -26
781 21 -26
782 21 -26
783 21 -26
784 21 -26
785 -48 30
786 -48 30
787 -48 30
788 7 -29
789 7 -29
790 -31 34
791 -31 34
792 -31 34
793 -31 34
794 -32 -9
795 -32 -9
796 -32 -9
797 -32 -9
798 -15 -20
799 -15 -20
800 -15 -20
801 -35 10
802 -35 10
803 -35 10
804 -35 10
805 41 27
806 41 27
807 41 27
808 41 27
809 41 27
810 -27 30
811 -27 30
812 -27 30
813 -27 30
814 -27 30
815 -30 -23
816 -30 -23
817 -30 -23
818 47 5
819 47 5
820 47 5
821 47 5
822 47 5
823 25 45
824 25 45
825 25 45
826 25 45
827 25 45
828 25 45
829 -47 16
830 -47 16
831 -47 16
832 28 40
833 28 40
834 28 40
835 -47 46
836 -47 46
837 -47 46
838 -47 46
839 -47 46
840 -47 46
841 24 24
842 24 24
843 24 24
844 24 24
845 24 24
846 24 24
DEMAND_SECTION
1 0
2 200
3 200
4 50
5 10
6 10
7 100
8 50
9 10
10 200
11 100
12 50
13 10
14 10
15 10
16 200
17 50
18 100
19 10
20 10
21 200
22 10
23 200
24 200
25 10
26 10
27 10
28 200
29 200
30 50
31 10
32 10
33 10
34 10
35 100
36 10
37 10
38 10
39 200
40 100
41 200
42 200
43 50
44 10
45 10
46 10
47 100
48 50
49 200
50 200
51 50
52 200
53 200
54 100
55 100
56 50
57 10
58 200
59 200
60 50
61 10
62 10
63 200
64 100
65 50
66 10
67 10
68 10
69 200
70 200
71 50
72 10
73 10
74 10
75 10
76 200
77 10
78 10
79 10
80 10
81 200
82 100
83 50
84 200
85 200
86 50
87 10
88 10
89 10
90 200
91 10
92 10
93 200
94 200
95 50
96 100
97 50
98 10
99 10
100 10
101 10
102 200
103 100
104 10
105 10
106 200
107 100
108 50
109 10
110 10
111 10
112 10
113 200
114 50
115 10
116 10
117 100
118 10
119 10
120 10
121 10
122 100
123 10
124 10
125 10
126 10
127 200
128 200
129 10
130 200
131 10
132 10
133 10
134 200
135 50
136 10
137 10
138 10
139 100
140 50
141 10
142 200
143 100
144 10
145 10
146 10
147 200
148 200
149 50
150 200
151 100
152 10
153 10
154 10
155 200
156 50
157 10
158 10
159 200
160 200
161 50
162 10
163 10
164 10
165 200
166 100
167 100
168 50
169 10
170 10
171 10
172 10
173 200
174 100
175 50
176 10
177 10
178 10
179 10
180 100
181 50
182 10
183 10
184 200
185 200
186 10
187 200
188 200
189 10
190 10
191 10
192 200
193 10
194 200
195 200
196 10
197 10
198 10
199 10
200 200
201 50
202 10
203 10
204 100
205 50
206 10
207 200
208 100
209 50
210 10
211 10
212 10
213 10
214 200
215 200
216 10
217 200
218 200
219 10
220 200
221 200
222 50
223 10
224 10
225 10
226 200
227 100
228 200
229 200
230 10
231 200
232 200
233 50
234 10
235 10
236 10
237 10
238 200
239 200
240 200
241 100
242 200
243 100
244 10
245 10
246 100
247 10
248 10
249 10
250 100
251 50
252 10
253 10
254 200
255 100
256 10
257 10
258 10
259 200
260 200
261 50
262 200
263 200
264 50
265 10
266 10
267 10
268 10
269 200
270 100
271 10
272 200
273 100
274 10
275 10
276 100
277 50
278 10
279 100
280 50
281 10
282 10
283 200
284 200
285 50
286 10
287 10
288 10
289 10
290 200
291 100
292 10
293 200
294 100
295 50
296 10
297 10
298 10
299 200
300 50
301 10
302 10
303 10
304 10
305 200
306 200
307 50
308 10
309 10
310 10
311 10
312 200
313 50
314 10
315 10
316 10
317 10
318 200
319 10
320 10
321 10
322 200
323 10
324 200
325 100
326 10
327 10
328 200
329 50
330 10
331 200
332 10
333 200
334 200
335 50
336 10
337 200
338 50
339 100
340 10
341 10
342 10
343 10
344 100
345 50
346 10
347 200
348 200
349 50
350 10
351 200
352 200
353 200
354 200
355 200
356 200
357 50
358 10
359 10
360 200
361 200
362 50
363 10
364 10
365 10
366 200
367 10
368 10
369 10
370 10
371 200
372 10
373 200
374 100
375 200
376 10
377 10
378 10
379 100
380 10
381 10
382 10
383 200
384 100
385 50
386 10
387 10
388 10
389 10
390 200
391 100
392 50
393 10
394 10
395 10
396 10
397 200
398 100
399 10
400 10
401 10
402 10
403 200
404 100
405 10
406 10
407 10
408 10
409 200
410 200
411 100
412 50
413 10
414 10
415 200
416 10
417 10
418 10
419 10
420 200
421 50
422 10
423 10
424 10
425 10
426 200
427 100
428 10
429 10
430 10
431 200
432 100
433 10
434 10
435 10
436 200
437 100
438 10
439 10
440 10
441 10
442 100
443 50
444 10
445 10
446 10
447 200
448 10
449 10
450 10
451 10
452 100
453 50
454 10
455 10
456 10
457 10
458 200
459 200
460 100
461 200
462 200
463 50
464 10
465 10
466 10
467 200
468 200
469 10
470 200
471 200
472 10
473 10
474 10
475 200
476 10
477 10
478 10
479 10
480 200
481 100
482 10
483 10
484 200
485 100
486 10
487 10
488 200
489 200
490 50
491 10
492 200
493 50
494 10
495 100
496 50
497 10
498 10
499 10
500 100
501 50
502 10
503 10
504 10
505 200
506 10
507 10
508 200
509 100
510 10
511 10
512 10
513 200
514 100
515 50
516 10
517 200
518 200
519 50
520 200
521 200
522 100
523 50
524 200
525 200
526 50
527 100
528 50
529 10
530 10
531 100
532 50
533 10
534 10
535 10
536 200
537 100
538 100
539 50
540 10
541 10
542 10
543 10
544 200
545 100
546 10
547 10
548 10
549 200
550 10
551 10
552 200
553 100
554 50
555 10
556 10
557 10
558 200
559 100
560 10
561 200
562 200
563 100
564 200
565 50
566 10
567 10
568 10
569 10
570 200
571 10
572 200
573 50
574 100
575 50
576 10
577 200
578 100
579 50
580 200
581 200
582 10
583 200
584 200
585 50
586 10
587 100
588 50
589 10
590 10
591 10
592 100
593 10
594 10
595 10
596 10
597 200
598 200
599 50
600 10
601 10
602 10
603 10
604 200
605 200
606 50
607 10
608 10
609 10
610 200
611 100
612 50
613 10
614 10
615 10
616 10
617 100
618 10
619 10
620 10
621 200
622 200
623 200
624 200
625 50
626 10
627 10
628 10
629 100
630 10
631 10
632 10
633 10
634 200
635 50
636 10
637 10
638 10
639 10
640 200
641 200
642 10
643 10
644 10
645 10
646 200
647 200
648 50
649 10
650 100
651 50
652 10
653 10
654 200
655 100
656 50
657 10
658 10
659 10
660 200
661 100
662 10
663 10
664 200
665 100
666 10
667 10
668 10
669 10
670 200
671 100
672 10
673 10
674 10
675 10
676 200
677 100
678 50
679 10
680 10
681 200
682 200
683 50
684 10
685 200
686 200
687 10
688 10
689 10
690 10
691 200
692 200
693 50
694 200
695 200
696 50
697 200
698 100
699 50
700 10
701 10
702 10
703 200
704 50
705 10
706 10
707 200
708 50
709 10
710 10
711 200
712 100
713 10
714 200
715 100
716 50
717 200
718 200
719 200
720 200
721 50
722 10
723 10
724 200
725 100
726 50
727 10
728 200
729 200
730 10
731 10
732 100
733 50
734 10
735 10
736 10
737 200
738 100
739 50
740 10
741 200
742 50
743 10
744 200
745 200
746 50
747 10
748 10
749 200
750 50
751 10
752 10
753 10
754 200
755 100
756 10
757 200
758 200
759 50
760 10
761 10
762 10
763 10
764 100
765 50
766 10
767 10
768 10
769 10
770 100
771 50
772 10
773 10
774 10
775 200
776 10
777 10
778 10
779 10
780 100
781 10
782 10
783 10
784 10
785 200
786 10
787 10
788 200
789 10
790 200
791 50
792 10
793 10
794 100
795 10
796 10
797 10
798 200
799 200
800 50
801 200
802 50
803 10
804 10
805 200
806 100
807 50
808 10
809 10
810 200
811 200
812 50
813 10
814 10
815 200
816 100
817 10
818 200
819 100
820 50
821 10
822 10
823 200
824 100
825 10
826 10
827 10
828 10
829 100
830 50
831 10
832 200
833 50
834 10
835 200
836 200
837 50
838 10
839 10
840 10
841 200
842 200
843 10
844 10
845 10
846 10
DEPOT_SECTION
1
-1
EOF