Normalized Data/p10_18_normalized_splitx10_0.sol
845 -13 14 30 31 29 28 32 33 27 625 623 622 627 624 626 683 -16 15 108 109 106 110 107 105 111 508 511 510 509 507 -18 17 19 424 419 423 213 215 214 798 799 -22 23 25 26 24 352 353 761 762 758 -39 38 89 91 90 549 548 550 467 468 -43 45 44 40 41 42 759 760 756 757 -54 55 56 175 6 8 7 559 557 558 725 724 723 726 -59 58 60 61 57 156 155 157 154 845 840 842 -67 62 63 64 66 65 363 362 364 361 359 360 118 119 120 117 116 -72 69 71 74 68 70 333 332 334 335 356 358 -73 575 574 433 432 431 430 434 753 259 258 -79 77 78 75 76 346 347 349 348 114 112 115 113 -80 81 82 220 224 221 219 222 223 678 677 676 679 -94 93 92 304 305 306 310 307 309 308 -97 407 404 99 98 95 406 675 291 289 290 271 273 272 274 -100 405 47 46 35 36 34 37 821 819 820 818 817 659 661 662 660 -124 125 122 123 121 4 5 3 1 2 504 505 506 -126 128 127 663 664 666 668 665 667 -136 135 134 133 137 88 86 85 84 87 83 684 688 687 -138 139 140 253 254 256 255 257 767 765 764 570 766 768 569 763 658 654 -148 147 146 519 50 49 245 -151 150 152 153 149 336 337 237 238 -162 161 163 160 710 711 712 447 446 449 562 560 715 -164 165 331 330 721 719 718 722 720 -169 168 171 166 167 170 610 609 613 614 612 611 615 579 580 581 -178 177 173 174 172 176 692 691 690 650 649 652 651 -179 181 708 707 706 709 323 324 325 326 633 638 637 634 636 635 -180 182 302 301 299 303 300 298 315 316 312 314 311 313 484 485 483 486 556 555 554 -183 185 184 816 814 815 370 371 -191 192 189 190 186 188 187 396 398 399 397 400 401 -211 208 212 210 207 206 209 541 539 540 538 537 542 453 451 452 455 454 456 445 444 443 441 442 -218 216 217 695 694 693 496 494 497 498 -226 225 669 671 672 673 524 523 525 -229 227 228 516 518 239 240 -230 234 231 232 233 235 236 577 578 576 260 573 -246 247 248 48 572 571 321 322 203 204 205 794 795 793 796 -251 249 252 250 426 427 425 429 428 392 395 391 394 390 389 393 388 386 387 -287 283 284 288 282 285 286 142 141 145 144 143 590 588 589 587 586 -295 296 293 297 292 294 101 104 102 103 748 749 750 752 751 -318 317 319 320 789 792 791 790 812 811 813 810 809 -329 328 327 553 551 552 520 522 521 -343 345 344 713 545 546 543 547 544 653 655 657 656 -350 351 837 835 834 838 839 836 754 755 -372 373 12 9 11 10 270 269 268 501 503 502 -374 377 375 414 411 413 412 410 409 788 787 -382 383 384 385 640 644 641 643 642 639 517 -417 415 418 416 381 378 380 379 51 53 52 464 463 561 714 -421 422 420 195 197 198 196 194 193 129 131 132 130 492 493 491 -437 439 438 440 436 435 802 800 801 803 21 20 769 770 773 772 771 -448 450 608 604 603 607 606 605 461 460 462 465 376 747 746 -458 457 459 277 275 276 536 535 -466 403 402 96 682 681 680 -476 477 475 478 474 241 242 244 243 408 784 786 785 -479 482 481 480 831 833 202 201 200 199 281 279 280 278 843 -495 823 824 826 827 825 822 619 617 618 616 473 470 472 471 469 832 -500 499 158 159 744 745 743 -515 512 513 514 357 354 355 685 686 689 -530 532 533 534 531 264 263 265 261 266 262 267 529 528 527 526 828 830 829 -584 585 583 582 698 696 700 697 701 699 632 629 630 628 631 -599 598 600 602 596 601 597 736 737 739 738 783 779 780 781 782 -620 621 591 592 595 593 594 728 727 729 730 -648 647 646 645 563 567 566 568 565 564 703 702 -670 674 338 339 342 340 341 365 367 368 369 366 732 733 735 734 731 741 740 742 -704 705 805 806 808 804 807 716 717 844 841 -775 776 777 778 774 490 487 489 488 797 0 





OBJ=
5833.207
BEST_KNOWN=
0.000